NAME : BIER127C.132020.tour
COMMENT : Cost = 0_132020
COMMENT : Found by LKH [Keld Helsgaun] Sun Sep 17 16:52:42 2017
TYPE : TOUR
DIMENSION : 127
TOUR_SECTION
1
51
57
48
46
49
47
56
121
115
13
7
120
10
3
11
9
24
23
72
73
68
71
70
69
75
76
80
31
27
30
34
43
40
42
39
38
26
25
33
122
28
29
32
83
82
126
81
84
117
78
74
67
59
60
62
61
91
58
64
113
65
99
92
89
125
104
110
85
86
87
88
109
96
119
63
102
101
98
97
123
95
93
127
107
111
112
94
118
53
54
45
103
44
35
37
36
41
14
12
79
77
18
21
17
20
15
105
114
106
6
108
4
22
19
8
116
90
100
66
55
124
52
5
50
2
16
-1
EOF
